tsp_instances/TSP50/instance57.tsp
NODE_COORD_SECTION
0 112 100
1 26 183
2 8 33
3 159 113
4 112 14
5 176 28
6 97 35
7 146 124
8 183 175
9 3 7
10 155 87
11 179 70
12 66 1
13 109 58
14 171 186
15 23 54
16 59 57
17 97 114
18 119 93
19 20 179
20 50 61
21 117 31
22 8 21
23 68 21
24 60 22
25 135 158
26 2 54
27 44 153
28 37 173
29 17 70
30 59 96
31 36 68
32 162 84
33 34 148
34 110 95
35 64 185
36 51 15
37 121 23
38 165 92
39 104 28
40 116 34
41 69 108
42 80 10
43 118 173
44 135 83
45 200 183
46 56 17
47 119 115
48 112 77
49 118 28
