tsp_instances/TSP50/instance57.opt.tour
TOUR_SECTION
1
18
48
8
4
9
46
15
26
44
36
2
20
29
28
34
42
31
17
21
32
30
16
27
3
23
10
37
47
25
24
13
43
7
40
5
38
50
22
41
6
12
33
39
11
45
14
49
19
35
-1